p cnf 487 1631
c Polynomial has 40 variables and 447 monomials
c Original variables from 1 to 40
c Monomials variables from 41 to 487
c p weight 1 0 0
c p weight -1 0 0
c p weight 2 0 0
c p weight -2 0 0
c p weight 3 0 0
c p weight -3 0 0
c p weight 4 0 0
c p weight -4 0 0
c p weight 5 0 0
c p weight -5 0 0
c p weight 6 0 0
c p weight -6 0 0
c p weight 7 0 0
c p weight -7 0 0
c p weight 8 0 0
c p weight -8 0 0
c p weight 9 0 0
c p weight -9 0 0
c p weight 10 0 0
c p weight -10 0 0
c p weight 11 0 0
c p weight -11 0 0
c p weight 12 0 0
c p weight -12 0 0
c p weight 13 0 0
c p weight -13 0 0
c p weight 14 0 0
c p weight -14 0 0
c p weight 15 0 0
c p weight -15 0 0
c p weight 16 0 0
c p weight -16 0 0
c p weight 17 0 0
c p weight -17 0 0
c p weight 18 0 0
c p weight -18 0 0
c p weight 19 0 0
c p weight -19 0 0
c p weight 20 0 0
c p weight -20 0 0
c p weight 21 0 0
c p weight -21 0 0
c p weight 22 0 0
c p weight -22 0 0
c p weight 23 0 0
c p weight -23 0 0
c p weight 24 0 0
c p weight -24 0 0
c p weight 25 0 0
c p weight -25 0 0
c p weight 26 0 0
c p weight -26 0 0
c p weight 27 0 0
c p weight -27 0 0
c p weight 28 0 0
c p weight -28 0 0
c p weight 29 0 0
c p weight -29 0 0
c p weight 30 0 0
c p weight -30 0 0
c p weight 31 0 0
c p weight -31 0 0
c p weight 32 0 0
c p weight -32 0 0
c p weight 33 0 0
c p weight -33 0 0
c p weight 34 0 0
c p weight -34 0 0
c p weight 35 0 0
c p weight -35 0 0
c p weight 36 0 0
c p weight -36 0 0
c p weight 37 0 0
c p weight -37 0 0
c p weight 38 0 0
c p weight -38 0 0
c p weight 39 0 0
c p weight -39 0 0
c p weight 40 0 0
c p weight -40 0 0
c p weight 41 64 0
c p weight -41 0 0
41 -1 -2 -3 -4 0
-41 1 0
-41 2 0
-41 3 0
-41 4 0
c p weight 42 64 0
c p weight -42 0 0
42 -1 -2 -4 -5 0
-42 1 0
-42 2 0
-42 4 0
-42 5 0
c p weight 43 128 0
c p weight -43 0 0
43 -2 -3 -4 -5 0
-43 2 0
-43 3 0
-43 4 0
-43 5 0
c p weight 44 64 0
c p weight -44 0 0
44 -2 -3 -5 -6 0
-44 2 0
-44 3 0
-44 5 0
-44 6 0
c p weight 45 128 0
c p weight -45 0 0
45 -3 -4 -5 -6 0
-45 3 0
-45 4 0
-45 5 0
-45 6 0
c p weight 46 64 0
c p weight -46 0 0
46 -3 -4 -6 -7 0
-46 3 0
-46 4 0
-46 6 0
-46 7 0
c p weight 47 128 0
c p weight -47 0 0
47 -4 -5 -6 -7 0
-47 4 0
-47 5 0
-47 6 0
-47 7 0
c p weight 48 64 0
c p weight -48 0 0
48 -4 -5 -7 -8 0
-48 4 0
-48 5 0
-48 7 0
-48 8 0
c p weight 49 128 0
c p weight -49 0 0
49 -5 -6 -7 -8 0
-49 5 0
-49 6 0
-49 7 0
-49 8 0
c p weight 50 64 0
c p weight -50 0 0
50 -5 -6 -8 -9 0
-50 5 0
-50 6 0
-50 8 0
-50 9 0
c p weight 51 128 0
c p weight -51 0 0
51 -6 -7 -8 -9 0
-51 6 0
-51 7 0
-51 8 0
-51 9 0
c p weight 52 64 0
c p weight -52 0 0
52 -6 -7 -9 -10 0
-52 6 0
-52 7 0
-52 9 0
-52 10 0
c p weight 53 128 0
c p weight -53 0 0
53 -7 -8 -9 -10 0
-53 7 0
-53 8 0
-53 9 0
-53 10 0
c p weight 54 64 0
c p weight -54 0 0
54 -7 -8 -10 -11 0
-54 7 0
-54 8 0
-54 10 0
-54 11 0
c p weight 55 128 0
c p weight -55 0 0
55 -8 -9 -10 -11 0
-55 8 0
-55 9 0
-55 10 0
-55 11 0
c p weight 56 64 0
c p weight -56 0 0
56 -8 -9 -11 -12 0
-56 8 0
-56 9 0
-56 11 0
-56 12 0
c p weight 57 128 0
c p weight -57 0 0
57 -9 -10 -11 -12 0
-57 9 0
-57 10 0
-57 11 0
-57 12 0
c p weight 58 64 0
c p weight -58 0 0
58 -9 -10 -12 -13 0
-58 9 0
-58 10 0
-58 12 0
-58 13 0
c p weight 59 128 0
c p weight -59 0 0
59 -10 -11 -12 -13 0
-59 10 0
-59 11 0
-59 12 0
-59 13 0
c p weight 60 64 0
c p weight -60 0 0
60 -10 -11 -13 -14 0
-60 10 0
-60 11 0
-60 13 0
-60 14 0
c p weight 61 128 0
c p weight -61 0 0
61 -11 -12 -13 -14 0
-61 11 0
-61 12 0
-61 13 0
-61 14 0
c p weight 62 64 0
c p weight -62 0 0
62 -11 -12 -14 -15 0
-62 11 0
-62 12 0
-62 14 0
-62 15 0
c p weight 63 128 0
c p weight -63 0 0
63 -12 -13 -14 -15 0
-63 12 0
-63 13 0
-63 14 0
-63 15 0
c p weight 64 64 0
c p weight -64 0 0
64 -12 -13 -15 -16 0
-64 12 0
-64 13 0
-64 15 0
-64 16 0
c p weight 65 128 0
c p weight -65 0 0
65 -13 -14 -15 -16 0
-65 13 0
-65 14 0
-65 15 0
-65 16 0
c p weight 66 64 0
c p weight -66 0 0
66 -13 -14 -16 -17 0
-66 13 0
-66 14 0
-66 16 0
-66 17 0
c p weight 67 128 0
c p weight -67 0 0
67 -14 -15 -16 -17 0
-67 14 0
-67 15 0
-67 16 0
-67 17 0
c p weight 68 64 0
c p weight -68 0 0
68 -14 -15 -17 -18 0
-68 14 0
-68 15 0
-68 17 0
-68 18 0
c p weight 69 128 0
c p weight -69 0 0
69 -15 -16 -17 -18 0
-69 15 0
-69 16 0
-69 17 0
-69 18 0
c p weight 70 64 0
c p weight -70 0 0
70 -15 -16 -18 -19 0
-70 15 0
-70 16 0
-70 18 0
-70 19 0
c p weight 71 128 0
c p weight -71 0 0
71 -16 -17 -18 -19 0
-71 16 0
-71 17 0
-71 18 0
-71 19 0
c p weight 72 64 0
c p weight -72 0 0
72 -16 -17 -19 -20 0
-72 16 0
-72 17 0
-72 19 0
-72 20 0
c p weight 73 128 0
c p weight -73 0 0
73 -17 -18 -19 -20 0
-73 17 0
-73 18 0
-73 19 0
-73 20 0
c p weight 74 64 0
c p weight -74 0 0
74 -17 -18 -20 -21 0
-74 17 0
-74 18 0
-74 20 0
-74 21 0
c p weight 75 128 0
c p weight -75 0 0
75 -18 -19 -20 -21 0
-75 18 0
-75 19 0
-75 20 0
-75 21 0
c p weight 76 64 0
c p weight -76 0 0
76 -18 -19 -21 -22 0
-76 18 0
-76 19 0
-76 21 0
-76 22 0
c p weight 77 128 0
c p weight -77 0 0
77 -19 -20 -21 -22 0
-77 19 0
-77 20 0
-77 21 0
-77 22 0
c p weight 78 64 0
c p weight -78 0 0
78 -19 -20 -22 -23 0
-78 19 0
-78 20 0
-78 22 0
-78 23 0
c p weight 79 128 0
c p weight -79 0 0
79 -20 -21 -22 -23 0
-79 20 0
-79 21 0
-79 22 0
-79 23 0
c p weight 80 64 0
c p weight -80 0 0
80 -20 -21 -23 -24 0
-80 20 0
-80 21 0
-80 23 0
-80 24 0
c p weight 81 128 0
c p weight -81 0 0
81 -21 -22 -23 -24 0
-81 21 0
-81 22 0
-81 23 0
-81 24 0
c p weight 82 64 0
c p weight -82 0 0
82 -21 -22 -24 -25 0
-82 21 0
-82 22 0
-82 24 0
-82 25 0
c p weight 83 128 0
c p weight -83 0 0
83 -22 -23 -24 -25 0
-83 22 0
-83 23 0
-83 24 0
-83 25 0
c p weight 84 64 0
c p weight -84 0 0
84 -22 -23 -25 -26 0
-84 22 0
-84 23 0
-84 25 0
-84 26 0
c p weight 85 128 0
c p weight -85 0 0
85 -23 -24 -25 -26 0
-85 23 0
-85 24 0
-85 25 0
-85 26 0
c p weight 86 64 0
c p weight -86 0 0
86 -23 -24 -26 -27 0
-86 23 0
-86 24 0
-86 26 0
-86 27 0
c p weight 87 128 0
c p weight -87 0 0
87 -24 -25 -26 -27 0
-87 24 0
-87 25 0
-87 26 0
-87 27 0
c p weight 88 64 0
c p weight -88 0 0
88 -24 -25 -27 -28 0
-88 24 0
-88 25 0
-88 27 0
-88 28 0
c p weight 89 128 0
c p weight -89 0 0
89 -25 -26 -27 -28 0
-89 25 0
-89 26 0
-89 27 0
-89 28 0
c p weight 90 64 0
c p weight -90 0 0
90 -25 -26 -28 -29 0
-90 25 0
-90 26 0
-90 28 0
-90 29 0
c p weight 91 128 0
c p weight -91 0 0
91 -26 -27 -28 -29 0
-91 26 0
-91 27 0
-91 28 0
-91 29 0
c p weight 92 64 0
c p weight -92 0 0
92 -26 -27 -29 -30 0
-92 26 0
-92 27 0
-92 29 0
-92 30 0
c p weight 93 128 0
c p weight -93 0 0
93 -27 -28 -29 -30 0
-93 27 0
-93 28 0
-93 29 0
-93 30 0
c p weight 94 64 0
c p weight -94 0 0
94 -27 -28 -30 -31 0
-94 27 0
-94 28 0
-94 30 0
-94 31 0
c p weight 95 128 0
c p weight -95 0 0
95 -28 -29 -30 -31 0
-95 28 0
-95 29 0
-95 30 0
-95 31 0
c p weight 96 64 0
c p weight -96 0 0
96 -28 -29 -31 -32 0
-96 28 0
-96 29 0
-96 31 0
-96 32 0
c p weight 97 128 0
c p weight -97 0 0
97 -29 -30 -31 -32 0
-97 29 0
-97 30 0
-97 31 0
-97 32 0
c p weight 98 64 0
c p weight -98 0 0
98 -29 -30 -32 -33 0
-98 29 0
-98 30 0
-98 32 0
-98 33 0
c p weight 99 128 0
c p weight -99 0 0
99 -30 -31 -32 -33 0
-99 30 0
-99 31 0
-99 32 0
-99 33 0
c p weight 100 64 0
c p weight -100 0 0
100 -30 -31 -33 -34 0
-100 30 0
-100 31 0
-100 33 0
-100 34 0
c p weight 101 128 0
c p weight -101 0 0
101 -31 -32 -33 -34 0
-101 31 0
-101 32 0
-101 33 0
-101 34 0
c p weight 102 64 0
c p weight -102 0 0
102 -31 -32 -34 -35 0
-102 31 0
-102 32 0
-102 34 0
-102 35 0
c p weight 103 128 0
c p weight -103 0 0
103 -32 -33 -34 -35 0
-103 32 0
-103 33 0
-103 34 0
-103 35 0
c p weight 104 64 0
c p weight -104 0 0
104 -32 -33 -35 -36 0
-104 32 0
-104 33 0
-104 35 0
-104 36 0
c p weight 105 128 0
c p weight -105 0 0
105 -33 -34 -35 -36 0
-105 33 0
-105 34 0
-105 35 0
-105 36 0
c p weight 106 64 0
c p weight -106 0 0
106 -33 -34 -36 -37 0
-106 33 0
-106 34 0
-106 36 0
-106 37 0
c p weight 107 128 0
c p weight -107 0 0
107 -34 -35 -36 -37 0
-107 34 0
-107 35 0
-107 36 0
-107 37 0
c p weight 108 64 0
c p weight -108 0 0
108 -34 -35 -37 -38 0
-108 34 0
-108 35 0
-108 37 0
-108 38 0
c p weight 109 128 0
c p weight -109 0 0
109 -35 -36 -37 -38 0
-109 35 0
-109 36 0
-109 37 0
-109 38 0
c p weight 110 64 0
c p weight -110 0 0
110 -35 -36 -38 -39 0
-110 35 0
-110 36 0
-110 38 0
-110 39 0
c p weight 111 128 0
c p weight -111 0 0
111 -36 -37 -38 -39 0
-111 36 0
-111 37 0
-111 38 0
-111 39 0
c p weight 112 64 0
c p weight -112 0 0
112 -36 -37 -39 -40 0
-112 36 0
-112 37 0
-112 39 0
-112 40 0
c p weight 113 64 0
c p weight -113 0 0
113 -37 -38 -39 -40 0
-113 37 0
-113 38 0
-113 39 0
-113 40 0
c p weight 114 -32 0
c p weight -114 0 0
114 -1 -2 -3 0
-114 1 0
-114 2 0
-114 3 0
c p weight 115 -64 0
c p weight -115 0 0
115 -1 -2 -4 0
-115 1 0
-115 2 0
-115 4 0
c p weight 116 -32 0
c p weight -116 0 0
116 -1 -2 -5 0
-116 1 0
-116 2 0
-116 5 0
c p weight 117 -32 0
c p weight -117 0 0
117 -1 -3 -4 0
-117 1 0
-117 3 0
-117 4 0
c p weight 118 -32 0
c p weight -118 0 0
118 -1 -4 -5 0
-118 1 0
-118 4 0
-118 5 0
c p weight 119 -96 0
c p weight -119 0 0
119 -2 -3 -4 0
-119 2 0
-119 3 0
-119 4 0
c p weight 120 -96 0
c p weight -120 0 0
120 -2 -3 -5 0
-120 2 0
-120 3 0
-120 5 0
c p weight 121 -32 0
c p weight -121 0 0
121 -2 -3 -6 0
-121 2 0
-121 3 0
-121 6 0
c p weight 122 -96 0
c p weight -122 0 0
122 -2 -4 -5 0
-122 2 0
-122 4 0
-122 5 0
c p weight 123 -32 0
c p weight -123 0 0
123 -2 -5 -6 0
-123 2 0
-123 5 0
-123 6 0
c p weight 124 -128 0
c p weight -124 0 0
124 -3 -4 -5 0
-124 3 0
-124 4 0
-124 5 0
c p weight 125 -96 0
c p weight -125 0 0
125 -3 -4 -6 0
-125 3 0
-125 4 0
-125 6 0
c p weight 126 -32 0
c p weight -126 0 0
126 -3 -4 -7 0
-126 3 0
-126 4 0
-126 7 0
c p weight 127 -96 0
c p weight -127 0 0
127 -3 -5 -6 0
-127 3 0
-127 5 0
-127 6 0
c p weight 128 -32 0
c p weight -128 0 0
128 -3 -6 -7 0
-128 3 0
-128 6 0
-128 7 0
c p weight 129 -128 0
c p weight -129 0 0
129 -4 -5 -6 0
-129 4 0
-129 5 0
-129 6 0
c p weight 130 -96 0
c p weight -130 0 0
130 -4 -5 -7 0
-130 4 0
-130 5 0
-130 7 0
c p weight 131 -32 0
c p weight -131 0 0
131 -4 -5 -8 0
-131 4 0
-131 5 0
-131 8 0
c p weight 132 -96 0
c p weight -132 0 0
132 -4 -6 -7 0
-132 4 0
-132 6 0
-132 7 0
c p weight 133 -32 0
c p weight -133 0 0
133 -4 -7 -8 0
-133 4 0
-133 7 0
-133 8 0
c p weight 134 -128 0
c p weight -134 0 0
134 -5 -6 -7 0
-134 5 0
-134 6 0
-134 7 0
c p weight 135 -96 0
c p weight -135 0 0
135 -5 -6 -8 0
-135 5 0
-135 6 0
-135 8 0
c p weight 136 -32 0
c p weight -136 0 0
136 -5 -6 -9 0
-136 5 0
-136 6 0
-136 9 0
c p weight 137 -96 0
c p weight -137 0 0
137 -5 -7 -8 0
-137 5 0
-137 7 0
-137 8 0
c p weight 138 -32 0
c p weight -138 0 0
138 -5 -8 -9 0
-138 5 0
-138 8 0
-138 9 0
c p weight 139 -128 0
c p weight -139 0 0
139 -6 -7 -8 0
-139 6 0
-139 7 0
-139 8 0
c p weight 140 -96 0
c p weight -140 0 0
140 -6 -7 -9 0
-140 6 0
-140 7 0
-140 9 0
c p weight 141 -32 0
c p weight -141 0 0
141 -6 -7 -10 0
-141 6 0
-141 7 0
-141 10 0
c p weight 142 -96 0
c p weight -142 0 0
142 -6 -8 -9 0
-142 6 0
-142 8 0
-142 9 0
c p weight 143 -32 0
c p weight -143 0 0
143 -6 -9 -10 0
-143 6 0
-143 9 0
-143 10 0
c p weight 144 -128 0
c p weight -144 0 0
144 -7 -8 -9 0
-144 7 0
-144 8 0
-144 9 0
c p weight 145 -96 0
c p weight -145 0 0
145 -7 -8 -10 0
-145 7 0
-145 8 0
-145 10 0
c p weight 146 -32 0
c p weight -146 0 0
146 -7 -8 -11 0
-146 7 0
-146 8 0
-146 11 0
c p weight 147 -96 0
c p weight -147 0 0
147 -7 -9 -10 0
-147 7 0
-147 9 0
-147 10 0
c p weight 148 -32 0
c p weight -148 0 0
148 -7 -10 -11 0
-148 7 0
-148 10 0
-148 11 0
c p weight 149 -128 0
c p weight -149 0 0
149 -8 -9 -10 0
-149 8 0
-149 9 0
-149 10 0
c p weight 150 -96 0
c p weight -150 0 0
150 -8 -9 -11 0
-150 8 0
-150 9 0
-150 11 0
c p weight 151 -32 0
c p weight -151 0 0
151 -8 -9 -12 0
-151 8 0
-151 9 0
-151 12 0
c p weight 152 -96 0
c p weight -152 0 0
152 -8 -10 -11 0
-152 8 0
-152 10 0
-152 11 0
c p weight 153 -32 0
c p weight -153 0 0
153 -8 -11 -12 0
-153 8 0
-153 11 0
-153 12 0
c p weight 154 -128 0
c p weight -154 0 0
154 -9 -10 -11 0
-154 9 0
-154 10 0
-154 11 0
c p weight 155 -96 0
c p weight -155 0 0
155 -9 -10 -12 0
-155 9 0
-155 10 0
-155 12 0
c p weight 156 -32 0
c p weight -156 0 0
156 -9 -10 -13 0
-156 9 0
-156 10 0
-156 13 0
c p weight 157 -96 0
c p weight -157 0 0
157 -9 -11 -12 0
-157 9 0
-157 11 0
-157 12 0
c p weight 158 -32 0
c p weight -158 0 0
158 -9 -12 -13 0
-158 9 0
-158 12 0
-158 13 0
c p weight 159 -128 0
c p weight -159 0 0
159 -10 -11 -12 0
-159 10 0
-159 11 0
-159 12 0
c p weight 160 -96 0
c p weight -160 0 0
160 -10 -11 -13 0
-160 10 0
-160 11 0
-160 13 0
c p weight 161 -32 0
c p weight -161 0 0
161 -10 -11 -14 0
-161 10 0
-161 11 0
-161 14 0
c p weight 162 -96 0
c p weight -162 0 0
162 -10 -12 -13 0
-162 10 0
-162 12 0
-162 13 0
c p weight 163 -32 0
c p weight -163 0 0
163 -10 -13 -14 0
-163 10 0
-163 13 0
-163 14 0
c p weight 164 -128 0
c p weight -164 0 0
164 -11 -12 -13 0
-164 11 0
-164 12 0
-164 13 0
c p weight 165 -96 0
c p weight -165 0 0
165 -11 -12 -14 0
-165 11 0
-165 12 0
-165 14 0
c p weight 166 -32 0
c p weight -166 0 0
166 -11 -12 -15 0
-166 11 0
-166 12 0
-166 15 0
c p weight 167 -96 0
c p weight -167 0 0
167 -11 -13 -14 0
-167 11 0
-167 13 0
-167 14 0
c p weight 168 -32 0
c p weight -168 0 0
168 -11 -14 -15 0
-168 11 0
-168 14 0
-168 15 0
c p weight 169 -128 0
c p weight -169 0 0
169 -12 -13 -14 0
-169 12 0
-169 13 0
-169 14 0
c p weight 170 -96 0
c p weight -170 0 0
170 -12 -13 -15 0
-170 12 0
-170 13 0
-170 15 0
c p weight 171 -32 0
c p weight -171 0 0
171 -12 -13 -16 0
-171 12 0
-171 13 0
-171 16 0
c p weight 172 -96 0
c p weight -172 0 0
172 -12 -14 -15 0
-172 12 0
-172 14 0
-172 15 0
c p weight 173 -32 0
c p weight -173 0 0
173 -12 -15 -16 0
-173 12 0
-173 15 0
-173 16 0
c p weight 174 -128 0
c p weight -174 0 0
174 -13 -14 -15 0
-174 13 0
-174 14 0
-174 15 0
c p weight 175 -96 0
c p weight -175 0 0
175 -13 -14 -16 0
-175 13 0
-175 14 0
-175 16 0
c p weight 176 -32 0
c p weight -176 0 0
176 -13 -14 -17 0
-176 13 0
-176 14 0
-176 17 0
c p weight 177 -96 0
c p weight -177 0 0
177 -13 -15 -16 0
-177 13 0
-177 15 0
-177 16 0
c p weight 178 -32 0
c p weight -178 0 0
178 -13 -16 -17 0
-178 13 0
-178 16 0
-178 17 0
c p weight 179 -128 0
c p weight -179 0 0
179 -14 -15 -16 0
-179 14 0
-179 15 0
-179 16 0
c p weight 180 -96 0
c p weight -180 0 0
180 -14 -15 -17 0
-180 14 0
-180 15 0
-180 17 0
c p weight 181 -32 0
c p weight -181 0 0
181 -14 -15 -18 0
-181 14 0
-181 15 0
-181 18 0
c p weight 182 -96 0
c p weight -182 0 0
182 -14 -16 -17 0
-182 14 0
-182 16 0
-182 17 0
c p weight 183 -32 0
c p weight -183 0 0
183 -14 -17 -18 0
-183 14 0
-183 17 0
-183 18 0
c p weight 184 -128 0
c p weight -184 0 0
184 -15 -16 -17 0
-184 15 0
-184 16 0
-184 17 0
c p weight 185 -96 0
c p weight -185 0 0
185 -15 -16 -18 0
-185 15 0
-185 16 0
-185 18 0
c p weight 186 -32 0
c p weight -186 0 0
186 -15 -16 -19 0
-186 15 0
-186 16 0
-186 19 0
c p weight 187 -96 0
c p weight -187 0 0
187 -15 -17 -18 0
-187 15 0
-187 17 0
-187 18 0
c p weight 188 -32 0
c p weight -188 0 0
188 -15 -18 -19 0
-188 15 0
-188 18 0
-188 19 0
c p weight 189 -128 0
c p weight -189 0 0
189 -16 -17 -18 0
-189 16 0
-189 17 0
-189 18 0
c p weight 190 -96 0
c p weight -190 0 0
190 -16 -17 -19 0
-190 16 0
-190 17 0
-190 19 0
c p weight 191 -32 0
c p weight -191 0 0
191 -16 -17 -20 0
-191 16 0
-191 17 0
-191 20 0
c p weight 192 -96 0
c p weight -192 0 0
192 -16 -18 -19 0
-192 16 0
-192 18 0
-192 19 0
c p weight 193 -32 0
c p weight -193 0 0
193 -16 -19 -20 0
-193 16 0
-193 19 0
-193 20 0
c p weight 194 -128 0
c p weight -194 0 0
194 -17 -18 -19 0
-194 17 0
-194 18 0
-194 19 0
c p weight 195 -96 0
c p weight -195 0 0
195 -17 -18 -20 0
-195 17 0
-195 18 0
-195 20 0
c p weight 196 -32 0
c p weight -196 0 0
196 -17 -18 -21 0
-196 17 0
-196 18 0
-196 21 0
c p weight 197 -96 0
c p weight -197 0 0
197 -17 -19 -20 0
-197 17 0
-197 19 0
-197 20 0
c p weight 198 -32 0
c p weight -198 0 0
198 -17 -20 -21 0
-198 17 0
-198 20 0
-198 21 0
c p weight 199 -128 0
c p weight -199 0 0
199 -18 -19 -20 0
-199 18 0
-199 19 0
-199 20 0
c p weight 200 -96 0
c p weight -200 0 0
200 -18 -19 -21 0
-200 18 0
-200 19 0
-200 21 0
c p weight 201 -32 0
c p weight -201 0 0
201 -18 -19 -22 0
-201 18 0
-201 19 0
-201 22 0
c p weight 202 -96 0
c p weight -202 0 0
202 -18 -20 -21 0
-202 18 0
-202 20 0
-202 21 0
c p weight 203 -32 0
c p weight -203 0 0
203 -18 -21 -22 0
-203 18 0
-203 21 0
-203 22 0
c p weight 204 -128 0
c p weight -204 0 0
204 -19 -20 -21 0
-204 19 0
-204 20 0
-204 21 0
c p weight 205 -96 0
c p weight -205 0 0
205 -19 -20 -22 0
-205 19 0
-205 20 0
-205 22 0
c p weight 206 -32 0
c p weight -206 0 0
206 -19 -20 -23 0
-206 19 0
-206 20 0
-206 23 0
c p weight 207 -96 0
c p weight -207 0 0
207 -19 -21 -22 0
-207 19 0
-207 21 0
-207 22 0
c p weight 208 -32 0
c p weight -208 0 0
208 -19 -22 -23 0
-208 19 0
-208 22 0
-208 23 0
c p weight 209 -128 0
c p weight -209 0 0
209 -20 -21 -22 0
-209 20 0
-209 21 0
-209 22 0
c p weight 210 -96 0
c p weight -210 0 0
210 -20 -21 -23 0
-210 20 0
-210 21 0
-210 23 0
c p weight 211 -32 0
c p weight -211 0 0
211 -20 -21 -24 0
-211 20 0
-211 21 0
-211 24 0
c p weight 212 -96 0
c p weight -212 0 0
212 -20 -22 -23 0
-212 20 0
-212 22 0
-212 23 0
c p weight 213 -32 0
c p weight -213 0 0
213 -20 -23 -24 0
-213 20 0
-213 23 0
-213 24 0
c p weight 214 -128 0
c p weight -214 0 0
214 -21 -22 -23 0
-214 21 0
-214 22 0
-214 23 0
c p weight 215 -96 0
c p weight -215 0 0
215 -21 -22 -24 0
-215 21 0
-215 22 0
-215 24 0
c p weight 216 -32 0
c p weight -216 0 0
216 -21 -22 -25 0
-216 21 0
-216 22 0
-216 25 0
c p weight 217 -96 0
c p weight -217 0 0
217 -21 -23 -24 0
-217 21 0
-217 23 0
-217 24 0
c p weight 218 -32 0
c p weight -218 0 0
218 -21 -24 -25 0
-218 21 0
-218 24 0
-218 25 0
c p weight 219 -128 0
c p weight -219 0 0
219 -22 -23 -24 0
-219 22 0
-219 23 0
-219 24 0
c p weight 220 -96 0
c p weight -220 0 0
220 -22 -23 -25 0
-220 22 0
-220 23 0
-220 25 0
c p weight 221 -32 0
c p weight -221 0 0
221 -22 -23 -26 0
-221 22 0
-221 23 0
-221 26 0
c p weight 222 -96 0
c p weight -222 0 0
222 -22 -24 -25 0
-222 22 0
-222 24 0
-222 25 0
c p weight 223 -32 0
c p weight -223 0 0
223 -22 -25 -26 0
-223 22 0
-223 25 0
-223 26 0
c p weight 224 -128 0
c p weight -224 0 0
224 -23 -24 -25 0
-224 23 0
-224 24 0
-224 25 0
c p weight 225 -96 0
c p weight -225 0 0
225 -23 -24 -26 0
-225 23 0
-225 24 0
-225 26 0
c p weight 226 -32 0
c p weight -226 0 0
226 -23 -24 -27 0
-226 23 0
-226 24 0
-226 27 0
c p weight 227 -96 0
c p weight -227 0 0
227 -23 -25 -26 0
-227 23 0
-227 25 0
-227 26 0
c p weight 228 -32 0
c p weight -228 0 0
228 -23 -26 -27 0
-228 23 0
-228 26 0
-228 27 0
c p weight 229 -128 0
c p weight -229 0 0
229 -24 -25 -26 0
-229 24 0
-229 25 0
-229 26 0
c p weight 230 -96 0
c p weight -230 0 0
230 -24 -25 -27 0
-230 24 0
-230 25 0
-230 27 0
c p weight 231 -32 0
c p weight -231 0 0
231 -24 -25 -28 0
-231 24 0
-231 25 0
-231 28 0
c p weight 232 -96 0
c p weight -232 0 0
232 -24 -26 -27 0
-232 24 0
-232 26 0
-232 27 0
c p weight 233 -32 0
c p weight -233 0 0
233 -24 -27 -28 0
-233 24 0
-233 27 0
-233 28 0
c p weight 234 -128 0
c p weight -234 0 0
234 -25 -26 -27 0
-234 25 0
-234 26 0
-234 27 0
c p weight 235 -96 0
c p weight -235 0 0
235 -25 -26 -28 0
-235 25 0
-235 26 0
-235 28 0
c p weight 236 -32 0
c p weight -236 0 0
236 -25 -26 -29 0
-236 25 0
-236 26 0
-236 29 0
c p weight 237 -96 0
c p weight -237 0 0
237 -25 -27 -28 0
-237 25 0
-237 27 0
-237 28 0
c p weight 238 -32 0
c p weight -238 0 0
238 -25 -28 -29 0
-238 25 0
-238 28 0
-238 29 0
c p weight 239 -128 0
c p weight -239 0 0
239 -26 -27 -28 0
-239 26 0
-239 27 0
-239 28 0
c p weight 240 -96 0
c p weight -240 0 0
240 -26 -27 -29 0
-240 26 0
-240 27 0
-240 29 0
c p weight 241 -32 0
c p weight -241 0 0
241 -26 -27 -30 0
-241 26 0
-241 27 0
-241 30 0
c p weight 242 -96 0
c p weight -242 0 0
242 -26 -28 -29 0
-242 26 0
-242 28 0
-242 29 0
c p weight 243 -32 0
c p weight -243 0 0
243 -26 -29 -30 0
-243 26 0
-243 29 0
-243 30 0
c p weight 244 -128 0
c p weight -244 0 0
244 -27 -28 -29 0
-244 27 0
-244 28 0
-244 29 0
c p weight 245 -96 0
c p weight -245 0 0
245 -27 -28 -30 0
-245 27 0
-245 28 0
-245 30 0
c p weight 246 -32 0
c p weight -246 0 0
246 -27 -28 -31 0
-246 27 0
-246 28 0
-246 31 0
c p weight 247 -96 0
c p weight -247 0 0
247 -27 -29 -30 0
-247 27 0
-247 29 0
-247 30 0
c p weight 248 -32 0
c p weight -248 0 0
248 -27 -30 -31 0
-248 27 0
-248 30 0
-248 31 0
c p weight 249 -128 0
c p weight -249 0 0
249 -28 -29 -30 0
-249 28 0
-249 29 0
-249 30 0
c p weight 250 -96 0
c p weight -250 0 0
250 -28 -29 -31 0
-250 28 0
-250 29 0
-250 31 0
c p weight 251 -32 0
c p weight -251 0 0
251 -28 -29 -32 0
-251 28 0
-251 29 0
-251 32 0
c p weight 252 -96 0
c p weight -252 0 0
252 -28 -30 -31 0
-252 28 0
-252 30 0
-252 31 0
c p weight 253 -32 0
c p weight -253 0 0
253 -28 -31 -32 0
-253 28 0
-253 31 0
-253 32 0
c p weight 254 -128 0
c p weight -254 0 0
254 -29 -30 -31 0
-254 29 0
-254 30 0
-254 31 0
c p weight 255 -96 0
c p weight -255 0 0
255 -29 -30 -32 0
-255 29 0
-255 30 0
-255 32 0
c p weight 256 -32 0
c p weight -256 0 0
256 -29 -30 -33 0
-256 29 0
-256 30 0
-256 33 0
c p weight 257 -96 0
c p weight -257 0 0
257 -29 -31 -32 0
-257 29 0
-257 31 0
-257 32 0
c p weight 258 -32 0
c p weight -258 0 0
258 -29 -32 -33 0
-258 29 0
-258 32 0
-258 33 0
c p weight 259 -128 0
c p weight -259 0 0
259 -30 -31 -32 0
-259 30 0
-259 31 0
-259 32 0
c p weight 260 -96 0
c p weight -260 0 0
260 -30 -31 -33 0
-260 30 0
-260 31 0
-260 33 0
c p weight 261 -32 0
c p weight -261 0 0
261 -30 -31 -34 0
-261 30 0
-261 31 0
-261 34 0
c p weight 262 -96 0
c p weight -262 0 0
262 -30 -32 -33 0
-262 30 0
-262 32 0
-262 33 0
c p weight 263 -32 0
c p weight -263 0 0
263 -30 -33 -34 0
-263 30 0
-263 33 0
-263 34 0
c p weight 264 -128 0
c p weight -264 0 0
264 -31 -32 -33 0
-264 31 0
-264 32 0
-264 33 0
c p weight 265 -96 0
c p weight -265 0 0
265 -31 -32 -34 0
-265 31 0
-265 32 0
-265 34 0
c p weight 266 -32 0
c p weight -266 0 0
266 -31 -32 -35 0
-266 31 0
-266 32 0
-266 35 0
c p weight 267 -96 0
c p weight -267 0 0
267 -31 -33 -34 0
-267 31 0
-267 33 0
-267 34 0
c p weight 268 -32 0
c p weight -268 0 0
268 -31 -34 -35 0
-268 31 0
-268 34 0
-268 35 0
c p weight 269 -128 0
c p weight -269 0 0
269 -32 -33 -34 0
-269 32 0
-269 33 0
-269 34 0
c p weight 270 -96 0
c p weight -270 0 0
270 -32 -33 -35 0
-270 32 0
-270 33 0
-270 35 0
c p weight 271 -32 0
c p weight -271 0 0
271 -32 -33 -36 0
-271 32 0
-271 33 0
-271 36 0
c p weight 272 -96 0
c p weight -272 0 0
272 -32 -34 -35 0
-272 32 0
-272 34 0
-272 35 0
c p weight 273 -32 0
c p weight -273 0 0
273 -32 -35 -36 0
-273 32 0
-273 35 0
-273 36 0
c p weight 274 -128 0
c p weight -274 0 0
274 -33 -34 -35 0
-274 33 0
-274 34 0
-274 35 0
c p weight 275 -96 0
c p weight -275 0 0
275 -33 -34 -36 0
-275 33 0
-275 34 0
-275 36 0
c p weight 276 -32 0
c p weight -276 0 0
276 -33 -34 -37 0
-276 33 0
-276 34 0
-276 37 0
c p weight 277 -96 0
c p weight -277 0 0
277 -33 -35 -36 0
-277 33 0
-277 35 0
-277 36 0
c p weight 278 -32 0
c p weight -278 0 0
278 -33 -36 -37 0
-278 33 0
-278 36 0
-278 37 0
c p weight 279 -128 0
c p weight -279 0 0
279 -34 -35 -36 0
-279 34 0
-279 35 0
-279 36 0
c p weight 280 -96 0
c p weight -280 0 0
280 -34 -35 -37 0
-280 34 0
-280 35 0
-280 37 0
c p weight 281 -32 0
c p weight -281 0 0
281 -34 -35 -38 0
-281 34 0
-281 35 0
-281 38 0
c p weight 282 -96 0
c p weight -282 0 0
282 -34 -36 -37 0
-282 34 0
-282 36 0
-282 37 0
c p weight 283 -32 0
c p weight -283 0 0
283 -34 -37 -38 0
-283 34 0
-283 37 0
-283 38 0
c p weight 284 -128 0
c p weight -284 0 0
284 -35 -36 -37 0
-284 35 0
-284 36 0
-284 37 0
c p weight 285 -96 0
c p weight -285 0 0
285 -35 -36 -38 0
-285 35 0
-285 36 0
-285 38 0
c p weight 286 -32 0
c p weight -286 0 0
286 -35 -36 -39 0
-286 35 0
-286 36 0
-286 39 0
c p weight 287 -96 0
c p weight -287 0 0
287 -35 -37 -38 0
-287 35 0
-287 37 0
-287 38 0
c p weight 288 -32 0
c p weight -288 0 0
288 -35 -38 -39 0
-288 35 0
-288 38 0
-288 39 0
c p weight 289 -128 0
c p weight -289 0 0
289 -36 -37 -38 0
-289 36 0
-289 37 0
-289 38 0
c p weight 290 -96 0
c p weight -290 0 0
290 -36 -37 -39 0
-290 36 0
-290 37 0
-290 39 0
c p weight 291 -32 0
c p weight -291 0 0
291 -36 -37 -40 0
-291 36 0
-291 37 0
-291 40 0
c p weight 292 -96 0
c p weight -292 0 0
292 -36 -38 -39 0
-292 36 0
-292 38 0
-292 39 0
c p weight 293 -32 0
c p weight -293 0 0
293 -36 -39 -40 0
-293 36 0
-293 39 0
-293 40 0
c p weight 294 -96 0
c p weight -294 0 0
294 -37 -38 -39 0
-294 37 0
-294 38 0
-294 39 0
c p weight 295 -32 0
c p weight -295 0 0
295 -37 -38 -40 0
-295 37 0
-295 38 0
-295 40 0
c p weight 296 -64 0
c p weight -296 0 0
296 -37 -39 -40 0
-296 37 0
-296 39 0
-296 40 0
c p weight 297 -32 0
c p weight -297 0 0
297 -38 -39 -40 0
-297 38 0
-297 39 0
-297 40 0
c p weight 298 32 0
c p weight -298 0 0
298 -1 -2 0
-298 1 0
-298 2 0
c p weight 299 24 0
c p weight -299 0 0
299 -1 -3 0
-299 1 0
-299 3 0
c p weight 300 32 0
c p weight -300 0 0
300 -1 -4 0
-300 1 0
-300 4 0
c p weight 301 24 0
c p weight -301 0 0
301 -1 -5 0
-301 1 0
-301 5 0
c p weight 302 64 0
c p weight -302 0 0
302 -2 -3 0
-302 2 0
-302 3 0
c p weight 303 80 0
c p weight -303 0 0
303 -2 -4 0
-303 2 0
-303 4 0
c p weight 304 64 0
c p weight -304 0 0
304 -2 -5 0
-304 2 0
-304 5 0
c p weight 305 24 0
c p weight -305 0 0
305 -2 -6 0
-305 2 0
-305 6 0
c p weight 306 96 0
c p weight -306 0 0
306 -3 -4 0
-306 3 0
-306 4 0
c p weight 307 104 0
c p weight -307 0 0
307 -3 -5 0
-307 3 0
-307 5 0
c p weight 308 64 0
c p weight -308 0 0
308 -3 -6 0
-308 3 0
-308 6 0
c p weight 309 24 0
c p weight -309 0 0
309 -3 -7 0
-309 3 0
-309 7 0
c p weight 310 128 0
c p weight -310 0 0
310 -4 -5 0
-310 4 0
-310 5 0
c p weight 311 104 0
c p weight -311 0 0
311 -4 -6 0
-311 4 0
-311 6 0
c p weight 312 64 0
c p weight -312 0 0
312 -4 -7 0
-312 4 0
-312 7 0
c p weight 313 24 0
c p weight -313 0 0
313 -4 -8 0
-313 4 0
-313 8 0
c p weight 314 128 0
c p weight -314 0 0
314 -5 -6 0
-314 5 0
-314 6 0
c p weight 315 104 0
c p weight -315 0 0
315 -5 -7 0
-315 5 0
-315 7 0
c p weight 316 64 0
c p weight -316 0 0
316 -5 -8 0
-316 5 0
-316 8 0
c p weight 317 24 0
c p weight -317 0 0
317 -5 -9 0
-317 5 0
-317 9 0
c p weight 318 128 0
c p weight -318 0 0
318 -6 -7 0
-318 6 0
-318 7 0
c p weight 319 104 0
c p weight -319 0 0
319 -6 -8 0
-319 6 0
-319 8 0
c p weight 320 64 0
c p weight -320 0 0
320 -6 -9 0
-320 6 0
-320 9 0
c p weight 321 24 0
c p weight -321 0 0
321 -6 -10 0
-321 6 0
-321 10 0
c p weight 322 128 0
c p weight -322 0 0
322 -7 -8 0
-322 7 0
-322 8 0
c p weight 323 104 0
c p weight -323 0 0
323 -7 -9 0
-323 7 0
-323 9 0
c p weight 324 64 0
c p weight -324 0 0
324 -7 -10 0
-324 7 0
-324 10 0
c p weight 325 24 0
c p weight -325 0 0
325 -7 -11 0
-325 7 0
-325 11 0
c p weight 326 128 0
c p weight -326 0 0
326 -8 -9 0
-326 8 0
-326 9 0
c p weight 327 104 0
c p weight -327 0 0
327 -8 -10 0
-327 8 0
-327 10 0
c p weight 328 64 0
c p weight -328 0 0
328 -8 -11 0
-328 8 0
-328 11 0
c p weight 329 24 0
c p weight -329 0 0
329 -8 -12 0
-329 8 0
-329 12 0
c p weight 330 128 0
c p weight -330 0 0
330 -9 -10 0
-330 9 0
-330 10 0
c p weight 331 104 0
c p weight -331 0 0
331 -9 -11 0
-331 9 0
-331 11 0
c p weight 332 64 0
c p weight -332 0 0
332 -9 -12 0
-332 9 0
-332 12 0
c p weight 333 24 0
c p weight -333 0 0
333 -9 -13 0
-333 9 0
-333 13 0
c p weight 334 128 0
c p weight -334 0 0
334 -10 -11 0
-334 10 0
-334 11 0
c p weight 335 104 0
c p weight -335 0 0
335 -10 -12 0
-335 10 0
-335 12 0
c p weight 336 64 0
c p weight -336 0 0
336 -10 -13 0
-336 10 0
-336 13 0
c p weight 337 24 0
c p weight -337 0 0
337 -10 -14 0
-337 10 0
-337 14 0
c p weight 338 128 0
c p weight -338 0 0
338 -11 -12 0
-338 11 0
-338 12 0
c p weight 339 104 0
c p weight -339 0 0
339 -11 -13 0
-339 11 0
-339 13 0
c p weight 340 64 0
c p weight -340 0 0
340 -11 -14 0
-340 11 0
-340 14 0
c p weight 341 24 0
c p weight -341 0 0
341 -11 -15 0
-341 11 0
-341 15 0
c p weight 342 128 0
c p weight -342 0 0
342 -12 -13 0
-342 12 0
-342 13 0
c p weight 343 104 0
c p weight -343 0 0
343 -12 -14 0
-343 12 0
-343 14 0
c p weight 344 64 0
c p weight -344 0 0
344 -12 -15 0
-344 12 0
-344 15 0
c p weight 345 24 0
c p weight -345 0 0
345 -12 -16 0
-345 12 0
-345 16 0
c p weight 346 128 0
c p weight -346 0 0
346 -13 -14 0
-346 13 0
-346 14 0
c p weight 347 104 0
c p weight -347 0 0
347 -13 -15 0
-347 13 0
-347 15 0
c p weight 348 64 0
c p weight -348 0 0
348 -13 -16 0
-348 13 0
-348 16 0
c p weight 349 24 0
c p weight -349 0 0
349 -13 -17 0
-349 13 0
-349 17 0
c p weight 350 128 0
c p weight -350 0 0
350 -14 -15 0
-350 14 0
-350 15 0
c p weight 351 104 0
c p weight -351 0 0
351 -14 -16 0
-351 14 0
-351 16 0
c p weight 352 64 0
c p weight -352 0 0
352 -14 -17 0
-352 14 0
-352 17 0
c p weight 353 24 0
c p weight -353 0 0
353 -14 -18 0
-353 14 0
-353 18 0
c p weight 354 128 0
c p weight -354 0 0
354 -15 -16 0
-354 15 0
-354 16 0
c p weight 355 104 0
c p weight -355 0 0
355 -15 -17 0
-355 15 0
-355 17 0
c p weight 356 64 0
c p weight -356 0 0
356 -15 -18 0
-356 15 0
-356 18 0
c p weight 357 24 0
c p weight -357 0 0
357 -15 -19 0
-357 15 0
-357 19 0
c p weight 358 128 0
c p weight -358 0 0
358 -16 -17 0
-358 16 0
-358 17 0
c p weight 359 104 0
c p weight -359 0 0
359 -16 -18 0
-359 16 0
-359 18 0
c p weight 360 64 0
c p weight -360 0 0
360 -16 -19 0
-360 16 0
-360 19 0
c p weight 361 24 0
c p weight -361 0 0
361 -16 -20 0
-361 16 0
-361 20 0
c p weight 362 128 0
c p weight -362 0 0
362 -17 -18 0
-362 17 0
-362 18 0
c p weight 363 104 0
c p weight -363 0 0
363 -17 -19 0
-363 17 0
-363 19 0
c p weight 364 64 0
c p weight -364 0 0
364 -17 -20 0
-364 17 0
-364 20 0
c p weight 365 24 0
c p weight -365 0 0
365 -17 -21 0
-365 17 0
-365 21 0
c p weight 366 128 0
c p weight -366 0 0
366 -18 -19 0
-366 18 0
-366 19 0
c p weight 367 104 0
c p weight -367 0 0
367 -18 -20 0
-367 18 0
-367 20 0
c p weight 368 64 0
c p weight -368 0 0
368 -18 -21 0
-368 18 0
-368 21 0
c p weight 369 24 0
c p weight -369 0 0
369 -18 -22 0
-369 18 0
-369 22 0
c p weight 370 128 0
c p weight -370 0 0
370 -19 -20 0
-370 19 0
-370 20 0
c p weight 371 104 0
c p weight -371 0 0
371 -19 -21 0
-371 19 0
-371 21 0
c p weight 372 64 0
c p weight -372 0 0
372 -19 -22 0
-372 19 0
-372 22 0
c p weight 373 24 0
c p weight -373 0 0
373 -19 -23 0
-373 19 0
-373 23 0
c p weight 374 128 0
c p weight -374 0 0
374 -20 -21 0
-374 20 0
-374 21 0
c p weight 375 104 0
c p weight -375 0 0
375 -20 -22 0
-375 20 0
-375 22 0
c p weight 376 64 0
c p weight -376 0 0
376 -20 -23 0
-376 20 0
-376 23 0
c p weight 377 24 0
c p weight -377 0 0
377 -20 -24 0
-377 20 0
-377 24 0
c p weight 378 128 0
c p weight -378 0 0
378 -21 -22 0
-378 21 0
-378 22 0
c p weight 379 104 0
c p weight -379 0 0
379 -21 -23 0
-379 21 0
-379 23 0
c p weight 380 64 0
c p weight -380 0 0
380 -21 -24 0
-380 21 0
-380 24 0
c p weight 381 24 0
c p weight -381 0 0
381 -21 -25 0
-381 21 0
-381 25 0
c p weight 382 128 0
c p weight -382 0 0
382 -22 -23 0
-382 22 0
-382 23 0
c p weight 383 104 0
c p weight -383 0 0
383 -22 -24 0
-383 22 0
-383 24 0
c p weight 384 64 0
c p weight -384 0 0
384 -22 -25 0
-384 22 0
-384 25 0
c p weight 385 24 0
c p weight -385 0 0
385 -22 -26 0
-385 22 0
-385 26 0
c p weight 386 128 0
c p weight -386 0 0
386 -23 -24 0
-386 23 0
-386 24 0
c p weight 387 104 0
c p weight -387 0 0
387 -23 -25 0
-387 23 0
-387 25 0
c p weight 388 64 0
c p weight -388 0 0
388 -23 -26 0
-388 23 0
-388 26 0
c p weight 389 24 0
c p weight -389 0 0
389 -23 -27 0
-389 23 0
-389 27 0
c p weight 390 128 0
c p weight -390 0 0
390 -24 -25 0
-390 24 0
-390 25 0
c p weight 391 104 0
c p weight -391 0 0
391 -24 -26 0
-391 24 0
-391 26 0
c p weight 392 64 0
c p weight -392 0 0
392 -24 -27 0
-392 24 0
-392 27 0
c p weight 393 24 0
c p weight -393 0 0
393 -24 -28 0
-393 24 0
-393 28 0
c p weight 394 128 0
c p weight -394 0 0
394 -25 -26 0
-394 25 0
-394 26 0
c p weight 395 104 0
c p weight -395 0 0
395 -25 -27 0
-395 25 0
-395 27 0
c p weight 396 64 0
c p weight -396 0 0
396 -25 -28 0
-396 25 0
-396 28 0
c p weight 397 24 0
c p weight -397 0 0
397 -25 -29 0
-397 25 0
-397 29 0
c p weight 398 128 0
c p weight -398 0 0
398 -26 -27 0
-398 26 0
-398 27 0
c p weight 399 104 0
c p weight -399 0 0
399 -26 -28 0
-399 26 0
-399 28 0
c p weight 400 64 0
c p weight -400 0 0
400 -26 -29 0
-400 26 0
-400 29 0
c p weight 401 24 0
c p weight -401 0 0
401 -26 -30 0
-401 26 0
-401 30 0
c p weight 402 128 0
c p weight -402 0 0
402 -27 -28 0
-402 27 0
-402 28 0
c p weight 403 104 0
c p weight -403 0 0
403 -27 -29 0
-403 27 0
-403 29 0
c p weight 404 64 0
c p weight -404 0 0
404 -27 -30 0
-404 27 0
-404 30 0
c p weight 405 24 0
c p weight -405 0 0
405 -27 -31 0
-405 27 0
-405 31 0
c p weight 406 128 0
c p weight -406 0 0
406 -28 -29 0
-406 28 0
-406 29 0
c p weight 407 104 0
c p weight -407 0 0
407 -28 -30 0
-407 28 0
-407 30 0
c p weight 408 64 0
c p weight -408 0 0
408 -28 -31 0
-408 28 0
-408 31 0
c p weight 409 24 0
c p weight -409 0 0
409 -28 -32 0
-409 28 0
-409 32 0
c p weight 410 128 0
c p weight -410 0 0
410 -29 -30 0
-410 29 0
-410 30 0
c p weight 411 104 0
c p weight -411 0 0
411 -29 -31 0
-411 29 0
-411 31 0
c p weight 412 64 0
c p weight -412 0 0
412 -29 -32 0
-412 29 0
-412 32 0
c p weight 413 24 0
c p weight -413 0 0
413 -29 -33 0
-413 29 0
-413 33 0
c p weight 414 128 0
c p weight -414 0 0
414 -30 -31 0
-414 30 0
-414 31 0
c p weight 415 104 0
c p weight -415 0 0
415 -30 -32 0
-415 30 0
-415 32 0
c p weight 416 64 0
c p weight -416 0 0
416 -30 -33 0
-416 30 0
-416 33 0
c p weight 417 24 0
c p weight -417 0 0
417 -30 -34 0
-417 30 0
-417 34 0
c p weight 418 128 0
c p weight -418 0 0
418 -31 -32 0
-418 31 0
-418 32 0
c p weight 419 104 0
c p weight -419 0 0
419 -31 -33 0
-419 31 0
-419 33 0
c p weight 420 64 0
c p weight -420 0 0
420 -31 -34 0
-420 31 0
-420 34 0
c p weight 421 24 0
c p weight -421 0 0
421 -31 -35 0
-421 31 0
-421 35 0
c p weight 422 128 0
c p weight -422 0 0
422 -32 -33 0
-422 32 0
-422 33 0
c p weight 423 104 0
c p weight -423 0 0
423 -32 -34 0
-423 32 0
-423 34 0
c p weight 424 64 0
c p weight -424 0 0
424 -32 -35 0
-424 32 0
-424 35 0
c p weight 425 24 0
c p weight -425 0 0
425 -32 -36 0
-425 32 0
-425 36 0
c p weight 426 128 0
c p weight -426 0 0
426 -33 -34 0
-426 33 0
-426 34 0
c p weight 427 104 0
c p weight -427 0 0
427 -33 -35 0
-427 33 0
-427 35 0
c p weight 428 64 0
c p weight -428 0 0
428 -33 -36 0
-428 33 0
-428 36 0
c p weight 429 24 0
c p weight -429 0 0
429 -33 -37 0
-429 33 0
-429 37 0
c p weight 430 128 0
c p weight -430 0 0
430 -34 -35 0
-430 34 0
-430 35 0
c p weight 431 104 0
c p weight -431 0 0
431 -34 -36 0
-431 34 0
-431 36 0
c p weight 432 64 0
c p weight -432 0 0
432 -34 -37 0
-432 34 0
-432 37 0
c p weight 433 24 0
c p weight -433 0 0
433 -34 -38 0
-433 34 0
-433 38 0
c p weight 434 128 0
c p weight -434 0 0
434 -35 -36 0
-434 35 0
-434 36 0
c p weight 435 104 0
c p weight -435 0 0
435 -35 -37 0
-435 35 0
-435 37 0
c p weight 436 64 0
c p weight -436 0 0
436 -35 -38 0
-436 35 0
-436 38 0
c p weight 437 24 0
c p weight -437 0 0
437 -35 -39 0
-437 35 0
-437 39 0
c p weight 438 128 0
c p weight -438 0 0
438 -36 -37 0
-438 36 0
-438 37 0
c p weight 439 104 0
c p weight -439 0 0
439 -36 -38 0
-439 36 0
-439 38 0
c p weight 440 64 0
c p weight -440 0 0
440 -36 -39 0
-440 36 0
-440 39 0
c p weight 441 24 0
c p weight -441 0 0
441 -36 -40 0
-441 36 0
-441 40 0
c p weight 442 96 0
c p weight -442 0 0
442 -37 -38 0
-442 37 0
-442 38 0
c p weight 443 80 0
c p weight -443 0 0
443 -37 -39 0
-443 37 0
-443 39 0
c p weight 444 32 0
c p weight -444 0 0
444 -37 -40 0
-444 37 0
-444 40 0
c p weight 445 64 0
c p weight -445 0 0
445 -38 -39 0
-445 38 0
-445 39 0
c p weight 446 24 0
c p weight -446 0 0
446 -38 -40 0
-446 38 0
-446 40 0
c p weight 447 32 0
c p weight -447 0 0
447 -39 -40 0
-447 39 0
-447 40 0
c p weight 448 -24 0
c p weight -448 0 0
448 -1 0
-448 1 0
c p weight 449 -52 0
c p weight -449 0 0
449 -2 0
-449 2 0
c p weight 450 -76 0
c p weight -450 0 0
450 -3 0
-450 3 0
c p weight 451 -104 0
c p weight -451 0 0
451 -4 0
-451 4 0
c p weight 452 -128 0
c p weight -452 0 0
452 -5 0
-452 5 0
c p weight 453 -128 0
c p weight -453 0 0
453 -6 0
-453 6 0
c p weight 454 -128 0
c p weight -454 0 0
454 -7 0
-454 7 0
c p weight 455 -128 0
c p weight -455 0 0
455 -8 0
-455 8 0
c p weight 456 -128 0
c p weight -456 0 0
456 -9 0
-456 9 0
c p weight 457 -128 0
c p weight -457 0 0
457 -10 0
-457 10 0
c p weight 458 -128 0
c p weight -458 0 0
458 -11 0
-458 11 0
c p weight 459 -128 0
c p weight -459 0 0
459 -12 0
-459 12 0
c p weight 460 -128 0
c p weight -460 0 0
460 -13 0
-460 13 0
c p weight 461 -128 0
c p weight -461 0 0
461 -14 0
-461 14 0
c p weight 462 -128 0
c p weight -462 0 0
462 -15 0
-462 15 0
c p weight 463 -128 0
c p weight -463 0 0
463 -16 0
-463 16 0
c p weight 464 -128 0
c p weight -464 0 0
464 -17 0
-464 17 0
c p weight 465 -128 0
c p weight -465 0 0
465 -18 0
-465 18 0
c p weight 466 -128 0
c p weight -466 0 0
466 -19 0
-466 19 0
c p weight 467 -128 0
c p weight -467 0 0
467 -20 0
-467 20 0
c p weight 468 -128 0
c p weight -468 0 0
468 -21 0
-468 21 0
c p weight 469 -128 0
c p weight -469 0 0
469 -22 0
-469 22 0
c p weight 470 -128 0
c p weight -470 0 0
470 -23 0
-470 23 0
c p weight 471 -128 0
c p weight -471 0 0
471 -24 0
-471 24 0
c p weight 472 -128 0
c p weight -472 0 0
472 -25 0
-472 25 0
c p weight 473 -128 0
c p weight -473 0 0
473 -26 0
-473 26 0
c p weight 474 -128 0
c p weight -474 0 0
474 -27 0
-474 27 0
c p weight 475 -128 0
c p weight -475 0 0
475 -28 0
-475 28 0
c p weight 476 -128 0
c p weight -476 0 0
476 -29 0
-476 29 0
c p weight 477 -128 0
c p weight -477 0 0
477 -30 0
-477 30 0
c p weight 478 -128 0
c p weight -478 0 0
478 -31 0
-478 31 0
c p weight 479 -128 0
c p weight -479 0 0
479 -32 0
-479 32 0
c p weight 480 -128 0
c p weight -480 0 0
480 -33 0
-480 33 0
c p weight 481 -128 0
c p weight -481 0 0
481 -34 0
-481 34 0
c p weight 482 -128 0
c p weight -482 0 0
482 -35 0
-482 35 0
c p weight 483 -128 0
c p weight -483 0 0
483 -36 0
-483 36 0
c p weight 484 -104 0
c p weight -484 0 0
484 -37 0
-484 37 0
c p weight 485 -76 0
c p weight -485 0 0
485 -38 0
-485 38 0
c p weight 486 -52 0
c p weight -486 0 0
486 -39 0
-486 39 0
c p weight 487 -24 0
c p weight -487 0 0
487 -40 0
-487 40 0
